p edge 25 64
e 1 2
e 1 4
e 1 9
e 1 10
e 1 12
e 1 17
e 1 19
e 2 3
e 2 5
e 2 6
e 2 8
e 2 17
e 3 7
e 3 8
e 3 11
e 3 12
e 3 14
e 3 15
e 3 17
e 3 19
e 4 12
e 4 25
e 5 6
e 5 8
e 5 14
e 5 18
e 5 19
e 5 23
e 6 10
e 6 12
e 6 17
e 6 24
e 7 9
e 7 11
e 7 24
e 7 25
e 8 11
e 8 14
e 8 17
e 8 20
e 8 21
e 9 16
e 9 18
e 9 25
e 10 12
e 10 17
e 10 20
e 11 13
e 11 20
e 11 21
e 12 14
e 12 17
e 12 20
e 13 18
e 13 20
e 13 22
e 14 17
e 15 19
e 15 25
e 16 18
e 17 20
e 18 23
e 22 23
e 23 25
